688 1707
298 1266
495 838
1981 808
1982 1964
1862 221
632 1009
1311 1114
1014 403
687 1415
1221 1537
276 1617
714 1322
1342 940
355 444
1824 1854
1141 518
1162 585
807 91
1598 1759
1687 1434
1278 1384
1747 865
327 1319
96 890
1354 914
1507 1038
1234 202
1499 713
2020 1836
257 800
909 1094
1097 1040
725 966
1491 234
1278 657
192 601
297 736
187 371
846 1672
280 477
1925 2012
646 1309
1096 815
1761 50
253 1813
219 324
1336 1478
1453 956
1049 1877
